TCS_Benchmarks/redos_fix/snort1_output_distinct_2342_2341_0_0.txt
([^\n\r]+)([^\n\r]+)
([^\n\r]+)(}&[lL][aA])([^\n\r]+)